unknown
(model
; cardinality of BoundSet is 4
(declare-sort BoundSet 0)
; rep: @uc_BoundSet_0
; rep: @uc_BoundSet_1
; rep: @uc_BoundSet_2
; rep: @uc_BoundSet_3
; cardinality of UnboundSet is 1
(declare-sort UnboundSet 0)
(declare-fun groundTerm_5 () UnboundSet)
(define-fun IsMale ((BOUND_VARIABLE_502 BoundSet)) Bool true)
(define-fun IsGuitarPlayer ((BOUND_VARIABLE_502 BoundSet)) Bool true)
(define-fun IsSinging ((BOUND_VARIABLE_502 BoundSet)) Bool true)
(define-fun IsNoteOfSong ((BOUND_VARIABLE_509 BoundSet) (BOUND_VARIABLE_510 BoundSet)) Bool true)
(define-fun IsInRoom ((BOUND_VARIABLE_509 BoundSet) (BOUND_VARIABLE_510 BoundSet)) Bool true)
(define-fun IsPoorlyLit ((BOUND_VARIABLE_502 BoundSet)) Bool true)
(define-fun IsIndoors ((BOUND_VARIABLE_509 BoundSet) (BOUND_VARIABLE_510 BoundSet)) Bool false)
)
sat
(model
; cardinality of BoundSet is 1
(declare-sort BoundSet 0)
; rep: @uc_BoundSet_0
; cardinality of UnboundSet is 1
(declare-sort UnboundSet 0)
(declare-fun groundTerm_8 () UnboundSet)
(define-fun IsMale ((BOUND_VARIABLE_557 BoundSet)) Bool true)
(define-fun IsGuitarPlayer ((BOUND_VARIABLE_557 BoundSet)) Bool true)
(define-fun IsSinging ((BOUND_VARIABLE_557 BoundSet)) Bool true)
(define-fun IsNoteOfSong ((BOUND_VARIABLE_564 BoundSet) (BOUND_VARIABLE_565 BoundSet)) Bool true)
(define-fun IsInRoom ((BOUND_VARIABLE_564 BoundSet) (BOUND_VARIABLE_565 BoundSet)) Bool true)
(define-fun IsPoorlyLit ((BOUND_VARIABLE_557 BoundSet)) Bool true)
(define-fun IsIndoors ((BOUND_VARIABLE_564 BoundSet) (BOUND_VARIABLE_565 BoundSet)) Bool false)
)
